[2026-03-24T16:34:20.320Z] Pipeline "set_vm-3-t3_vm-3-t3_s001_g001" → 2026_03_24_16_34_20_set_vm-3-t3_vm-3-t3_s001_g001_max.sol
Set parameter Username
Set parameter LicenseID to value 2796068
Set parameter LogFile to value "gurobi.log"
Using license file /opt/gurobi/gurobi.lic
Academic license - for non-commercial use only - expires 2027-03-23

Gurobi Optimizer version 13.0.1 build v13.0.1rc0 (linux64 - "Ubuntu 24.04.4 LTS")
Copyright (c) 2026, Gurobi Optimization, LLC

Warning: Duplicate section found (read 'binary') - Is a variable name equal to an LP file format keyword?
Warning: Duplicate section found (read 'binary') - Is a variable name equal to an LP file format keyword?
Warning: Duplicate section found (read 'binary') - Is a variable name equal to an LP file format keyword?
Warning: Duplicate section found (read 'binary') - Is a variable name equal to an LP file format keyword?
Warning: Duplicate section found (read 'binary') - Is a variable name equal to an LP file format keyword?
Warning: Duplicate section found (read 'binary') - Is a variable name equal to an LP file format keyword?
Warning: Duplicate section found (read 'binary') - Is a variable name equal to an LP file format keyword?
Warning: Duplicate section found (read 'binary') - Is a variable name equal to an LP file format keyword?
Warning: Duplicate section found (read 'binary') - Is a variable name equal to an LP file format keyword?
Warning: Duplicate section found (read 'binary') - Is a variable name equal to an LP file format keyword?
Warning: Further warnings of this type will be omitted.
Read LP format model from file /root/bgw/data/uploads/2026_03_24_16_34_20_set_vm-3-t3_vm-3-t3_s001_g001_max.lp
Reading time = 0.00 seconds
: 695 rows, 141 columns, 2002 nonzeros

Using Gurobi shared library /opt/gurobi1301/linux64/lib/libgurobi.so.13.0.1

CPU model: AMD EPYC-Genoa Processor, instruction set [SSE2|AVX|AVX2|AVX512]
Thread count: 16 physical cores, 16 logical processors, using up to 16 threads

Optimize a model with 695 rows, 141 columns and 2002 nonzeros (Max)
Model fingerprint: 0x2850d33f
Model has 42 linear objective coefficients
Variable types: 53 continuous, 88 integer (88 binary)
Coefficient statistics:
  Matrix range     [1e+00, 1e+01]
  Objective range  [1e+00, 1e+00]
  Bounds range     [1e+00, 1e+00]
  RHS range        [1e+00, 1e+01]

Found heuristic solution: objective 42.0000000
Presolve removed 329 rows and 65 columns
Presolve time: 0.00s
Presolved: 366 rows, 76 columns, 1146 nonzeros
Variable types: 0 continuous, 76 integer (70 binary)
Found heuristic solution: objective 87.0000000

Root relaxation: objective 2.670000e+02, 71 iterations, 0.00 seconds (0.00 work units)

    Nodes    |    Current Node    |     Objective Bounds      |     Work
 Expl Unexpl |  Obj  Depth IntInf | Incumbent    BestBd   Gap | It/Node Time

     0     0  267.00000    0   14   87.00000  267.00000   207%     -    0s
H    0     0                     117.0000000  267.00000   128%     -    0s
     0     0  267.00000    0   14  117.00000  267.00000   128%     -    0s
     0     0  252.00000    0   12  117.00000  252.00000   115%     -    0s
     0     0  252.00000    0   12  117.00000  252.00000   115%     -    0s
     0     0  252.00000    0   20  117.00000  252.00000   115%     -    0s
     0     0  252.00000    0   14  117.00000  252.00000   115%     -    0s
     0     0  252.00000    0   20  117.00000  252.00000   115%     -    0s
     0     0  252.00000    0   19  117.00000  252.00000   115%     -    0s
     0     0  252.00000    0   19  117.00000  252.00000   115%     -    0s
     0     0  248.66667    0   20  117.00000  248.66667   113%     -    0s
     0     0  248.66667    0   20  117.00000  248.66667   113%     -    0s
     0     0  246.16667    0   18  117.00000  246.16667   110%     -    0s
     0     0  246.16667    0   18  117.00000  246.16667   110%     -    0s
     0     0  243.66667    0   18  117.00000  243.66667   108%     -    0s
     0     0  243.66667    0   14  117.00000  243.66667   108%     -    0s
     0     2  243.66667    0   14  117.00000  243.66667   108%     -    0s

Cutting planes:
  Gomory: 5
  Lift-and-project: 1
  Cover: 28
  MIR: 3
  StrongCG: 1
  Inf proof: 42
  Zero half: 8
  Mod-K: 1

Explored 5952 nodes (77341 simplex iterations) in 0.30 seconds (0.27 work units)
Thread count was 16 (of 16 available processors)

Solution count 3: 117 87 42 

Optimal solution found (tolerance 1.00e-04)
Best objective 1.170000000000e+02, best bound 1.170000000000e+02, gap 0.0000%

Wrote result file '/root/bgw/data/results/2026_03_24_16_34_20_set_vm-3-t3_vm-3-t3_s001_g001_max.sol'

